solution status: optimal solution found
objective value:                     172806.717275897
d11(0,0)                                            1 	(obj:0)
d11(1,1)                                            1 	(obj:0)
d11(2,3)                                            1 	(obj:0)
d11(2,5)                                            1 	(obj:0)
d11(3,7)                                            1 	(obj:0)
d11(3,9)                                            1 	(obj:0)
d11(3,10)                                           1 	(obj:0)
d11(3,11)                                           1 	(obj:0)
d11(3,13)                                           1 	(obj:0)
d11(4,15)                                           1 	(obj:0)
d11(4,21)                                           1 	(obj:0)
d11(4,23)                                           1 	(obj:0)
d11(4,25)                                           1 	(obj:0)
d11(4,27)                                           1 	(obj:0)
d11(5,41)                                           1 	(obj:0)
d11(5,43)                                           1 	(obj:0)
d11(5,47)                                           1 	(obj:0)
d11(5,53)                                           1 	(obj:0)
d12(2,4)                                            1 	(obj:0)
d12(2,6)                                            1 	(obj:0)
d12(4,16)                                           1 	(obj:0)
d12(4,18)                                           1 	(obj:0)
d12(4,20)                                           1 	(obj:0)
d12(4,22)                                           1 	(obj:0)
d12(4,24)                                           1 	(obj:0)
d12(4,26)                                           1 	(obj:0)
d12(4,28)                                           1 	(obj:0)
d12(4,30)                                           1 	(obj:0)
d12(5,32)                                           1 	(obj:0)
d12(5,34)                                           1 	(obj:0)
d12(5,36)                                           1 	(obj:0)
d12(5,38)                                           1 	(obj:0)
d12(5,40)                                           1 	(obj:0)
d12(5,42)                                           1 	(obj:0)
d12(5,44)                                           1 	(obj:0)
d12(5,46)                                           1 	(obj:0)
d12(5,48)                                           1 	(obj:0)
d12(5,50)                                           1 	(obj:0)
d12(5,52)                                           1 	(obj:0)
d12(5,54)                                           1 	(obj:0)
d12(5,56)                                           1 	(obj:0)
d12(5,58)                                           1 	(obj:0)
d12(5,60)                                           1 	(obj:0)
d12(5,62)                                           1 	(obj:0)
d21(3,7)                                            1 	(obj:0)
d21(3,8)                                            1 	(obj:0)
d21(3,9)                                            1 	(obj:0)
d21(3,11)                                           1 	(obj:0)
d21(4,15)                                           1 	(obj:0)
d21(4,16)                                           1 	(obj:0)
d21(4,17)                                           1 	(obj:0)
d21(4,19)                                           1 	(obj:0)
d21(4,23)                                           1 	(obj:0)
d21(5,31)                                           1 	(obj:0)
d21(5,32)                                           1 	(obj:0)
d21(5,33)                                           1 	(obj:0)
d21(5,34)                                           1 	(obj:0)
d21(5,35)                                           1 	(obj:0)
d21(5,36)                                           1 	(obj:0)
d21(5,37)                                           1 	(obj:0)
d21(5,39)                                           1 	(obj:0)
d21(5,40)                                           1 	(obj:0)
d21(5,41)                                           1 	(obj:0)
d21(5,43)                                           1 	(obj:0)
d21(5,47)                                           1 	(obj:0)
d21(5,48)                                           1 	(obj:0)
d21(5,49)                                           1 	(obj:0)
d21(5,55)                                           1 	(obj:0)
y2(5,40)                             1385.48851144895 	(obj:0)
y2(5,42)                             1385.48851144895 	(obj:0)
y2(5,44)                             1385.48851144895 	(obj:0)
y2(5,46)                             1385.48851144895 	(obj:0)
y2(5,48)                             1385.48851144895 	(obj:0)
y2(5,50)                             1385.48851144895 	(obj:0)
y2(5,52)                             1385.48851144895 	(obj:0)
y2(5,54)                             1385.48851144895 	(obj:0)
y2(5,56)                             1385.48851144895 	(obj:0)
y2(5,58)                             1385.48851144895 	(obj:0)
y2(5,60)                             1385.48851144895 	(obj:0)
y2(5,62)                             1385.48851144895 	(obj:0)
STE(1,1)                             7035.75010111115 	(obj:0)
STE(0,0)                                         9450 	(obj:0)
STE(1,2)                                         8694 	(obj:0)
STE(2,3)                             5334.75035103862 	(obj:0)
STE(2,4)                             6755.01083796904 	(obj:0)
STE(2,5)                             6993.00024992747 	(obj:0)
STE(2,6)                             8413.26073685792 	(obj:0)
STE(3,7)                              2920.5004521498 	(obj:0)
STE(3,8)                             4578.75035103862 	(obj:0)
STE(3,9)                             4340.76093908022 	(obj:0)
STE(3,10)                            5999.01083796904 	(obj:0)
STE(3,11)                            4578.75035103865 	(obj:0)
STE(3,12)                            6237.00024992747 	(obj:0)
STE(3,13)                             5999.0108379691 	(obj:0)
STE(3,14)                            7657.26073685792 	(obj:0)
STE(4,15)                             2164.5004521498 	(obj:0)
STE(4,16)                            3480.71453802631 	(obj:0)
STE(4,17)                            3822.75035103862 	(obj:0)
STE(4,18)                            5138.96443691513 	(obj:0)
STE(4,19)                            3584.76093908022 	(obj:0)
STE(4,20)                            4900.97502495673 	(obj:0)
STE(4,21)                            5243.01083796904 	(obj:0)
STE(4,22)                            6559.22492384555 	(obj:0)
STE(4,23)                            3822.75035103871 	(obj:0)
STE(4,24)                            5138.96443691516 	(obj:0)
STE(4,25)                                  5481.00025 	(obj:0)
STE(4,26)                            6797.21433580397 	(obj:0)
STE(4,27)                             5243.0108379691 	(obj:0)
STE(4,28)                             6559.2249238456 	(obj:0)
STE(4,29)                            6901.26073685792 	(obj:0)
STE(4,30)                            8217.47482273442 	(obj:0)
STE(5,31)                             1408.5004521498 	(obj:0)
STE(5,32)                            2724.71453802631 	(obj:0)
STE(5,33)                            2724.71453802631 	(obj:0)
STE(5,34)                            4040.92862390282 	(obj:0)
STE(5,35)                            3066.75035103862 	(obj:0)
STE(5,36)                            4382.96443691513 	(obj:0)
STE(5,37)                            4382.96443691513 	(obj:0)
STE(5,38)                            5699.17852279164 	(obj:0)
STE(5,39)                            2828.76093908022 	(obj:0)
STE(5,40)                            4144.97502495673 	(obj:0)
STE(5,41)                            4144.97502495677 	(obj:0)
STE(5,42)                            5461.18911083323 	(obj:0)
STE(5,43)                            4487.01083796908 	(obj:0)
STE(5,44)                            5803.22492384554 	(obj:0)
STE(5,45)                            5803.22492384555 	(obj:0)
STE(5,46)                            7119.43900972205 	(obj:0)
STE(5,47)                            3066.75035103875 	(obj:0)
STE(5,48)                            4382.96443691522 	(obj:0)
STE(5,49)                            4382.96443691516 	(obj:0)
STE(5,50)                            5699.17852279166 	(obj:0)
STE(5,51)                                  4725.00025 	(obj:0)
STE(5,52)                            6041.21433587651 	(obj:0)
STE(5,53)                            6041.21433580402 	(obj:0)
STE(5,54)                            7357.42842168048 	(obj:0)
STE(5,55)                             4487.0108379691 	(obj:0)
STE(5,56)                             5803.2249238456 	(obj:0)
STE(5,57)                             5803.2249238456 	(obj:0)
STE(5,58)                            7119.43900972211 	(obj:0)
STE(5,59)                            6145.26073685792 	(obj:0)
STE(5,60)                            7461.47482273442 	(obj:0)
STE(5,61)                            7461.47482273442 	(obj:0)
STE(5,62)                            8777.68890861093 	(obj:0)
AVE(1)                                   3216.9117036 	(obj:0)
AVE(2)                                   3366.1541945 	(obj:0)
AVE(3)                                   3515.3966854 	(obj:0)
WB(4)                                841.984126682749 	(obj:0)
AVE(4)                               3515.39406545826 	(obj:0)
WB(5)                                3167.15385943327 	(obj:0)
AVE(5)                               3167.15385943327 	(obj:0)
WG(1)                                    3216.9117036 	(obj:10)
WG(2)                                    3366.1541945 	(obj:10)
WG(3)                                    3515.3966854 	(obj:10)
WG(4)                                2673.40993877551 	(obj:10)
BG(1)                                979.380795379592 	(obj:10)
BG(2)                                175.112657607421 	(obj:10)
BG(3)                                680.895813579591 	(obj:10)
BG(5)                                2673.40993877551 	(obj:10)
y1(1,1)                              1492.42490899996 	(obj:0)
y1(2,3)                              850.499775065279 	(obj:0)
y1(2,5)                              850.499775065279 	(obj:0)
y1(3,7)                              1492.42490899994 	(obj:0)
y1(3,9)                              1492.42490899994 	(obj:0)
y1(3,11)                             1492.42490899994 	(obj:0)
y1(3,13)                             1492.42490899994 	(obj:0)
y1(4,25)                         -6.52793096378446e-008 	(obj:0)
y2(2,4)                              500.274459850405 	(obj:0)
y2(2,6)                              500.274459850436 	(obj:0)
y2(4,16)                             1385.48851144895 	(obj:0)
y2(4,18)                             1385.48851144896 	(obj:0)
y2(4,20)                             1385.48851144895 	(obj:0)
y2(4,22)                             1385.48851144895 	(obj:0)
y2(4,24)                             1385.48851144895 	(obj:0)
y2(4,26)                             1385.48851144895 	(obj:0)
y2(4,28)                             1385.48851144895 	(obj:0)
y2(4,30)                             1385.48851144895 	(obj:0)
y2(5,32)                             1385.48851144895 	(obj:0)
y2(5,34)                             1385.48851144895 	(obj:0)
y2(5,36)                             1385.48851144895 	(obj:0)
y2(5,38)                             1385.48851144895 	(obj:0)
